p cnf 12 16
   1   2   0
   3   4   0
   5   6   0
   7   8   0
   9  10   0
  11  12   0
  -1   -3  0
  -2   -4  0
  -1   -5  0
  -2   -6  0
  -1   -7  0
  -2   -8  0
  -1   -9  0
  -2  -10  0
  -1  -11  0
  -2  -12  0
